
%FILE DATA:	Soccer Computational Problem for MiniZinc Models	%
%AUTHOR:	Jack Wall	%
%CONTACT:  	116397063@umail.ucc.ie			%
%LAST UPDATE:	03/02/2020, 19:05:33						%
%DESCRIPTION: 	102 games played with 30 games left				%


n=12; %number of teams

%Games to play
games=[|7,9|4,8|10,1|6,7|5,2|3,10|11,12|3,9|4,2|5,4|9,4|11,1|2,12|9,8|6,10|5,3|11,4|3,8|4,7|3,12|1,2|2,8|6,8|9,11|4,10|9,2|7,2|3,2|2,7|8,9|];

%Initial points
iPoints=[28,17,28,9,36,19,25,18,21,23,20,23];

%POSITION CONSTRAINTS
% [|teamID, operator, position|...]
% operators index:
%  1 for =  operator
%  2 for >  operator
%  3 for >= operator
%  4 for <  operator
%  5 for <= operator
positionConstraints=[|5,3,1|3,5,2|];